%
% Generated Sudoku 25x25
% Density approximation: 0.50
%
x = array2d(1..n, 1..n, [
  22,  23,  15,   _,   _,   _,   _,   _,  19,   _,  12,   1,  16,   _,  25,   _,  17,   _,   3,   9,   _,   _,   7,   _,   2,
   9,  21,  14,   _,   _,   2,   4,   _,   _,   _,  18,   5,  17,   3,  19,   _,   _,   _,  11,   _,   _,   _,   _,   _,  25,
   _,   _,   _,   _,   _,  25,   _,   _,   8,  21,   2,  14,   _,  22,   6,   5,  19,  23,  18,   4,  12,   _,   _,   _,   _,
   7,   5,   3,  19,   _,   _,  24,   _,  15,   1,  23,   _,  21,  13,   8,   6,  25,   _,   _,   _,   _,  22,   9,   _,   _,
   _,  25,   1,  18,   _,   5,  23,  11,   _,  17,   _,   _,  10,   7,  24,  21,   2,   _,  15,   _,   _,   _,  13,   _,   _,
  12,   4,  19,   _,   _,  10,  22,   _,   7,   _,  17,   _,   _,  24,   9,   _,  18,   _,  25,   3,   6,   1,  21,  13,   _,
   8,  13,   _,  22,   _,   1,   _,  21,  14,  23,   _,  25,   7,   _,   _,   _,   4,   2,   5,  17,  15,   9,   _,  19,   _,
   _,   _,   _,   5,   _,   _,   _,   _,   _,   _,   _,   2,   _,   _,   _,   1,  13,   _,   _,   7,   _,   _,  17,  14,   _,
  20,   _,   2,   _,   _,   _,   _,   _,   _,   _,  22,   _,   _,   _,  10,   _,   9,   8,   _,  15,  16,  23,   _,   _,   _,
  21,   9,   _,  25,   _,   4,  11,   _,  17,  24,   1,  13,   _,  19,   _,  23,  22,   _,   _,   _,   2,   8,   _,  18,  20,
   3,   6,  25,   _,   _,   _,   _,   1,   4,   _,  21,  18,   _,   8,  14,   _,  15,   9,  17,   _,  19,  24,   5,  12,   _,
  18,   _,   _,   _,  17,  23,   2,  14,  21,  25,  19,  24,   _,   4,   _,   _,   _,   3,   8,   _,   _,   7,   _,   _,  22,
   4,  19,   _,   _,   _,   _,   _,   _,   _,   _,  25,   3,   _,  16,   2,  18,   7,  13,   6,   _,   _,   _,   1,  17,   _,
   _,   _,  21,   _,   _,   _,   _,   5,   6,  13,   _,  11,  23,   _,   _,   _,  20,   4,   1,  19,   3,   2,  18,   9,  16,
   _,   2,   _,  20,   _,   _,   _,  16,   _,   9,   6,   _,   _,  10,   _,   _,  24,   _,   _,   _,   _,   4,   _,   8,  13,
   2,  15,  16,   3,  21,   _,   _,  18,  11,  19,   _,  10,   1,   _,   _,   _,   _,   _,   _,   _,   8,   _,   _,   _,   _,
   _,   _,   _,   _,   _,   _,   5,   _,   1,   _,   _,  16,   2,   9,   _,   4,   _,  20,  13,   8,  11,   _,   _,   _,  10,
   5,   _,   _,   _,   _,  15,   7,   _,  25,  10,   8,  12,  11,   _,   _,   _,  14,   _,  16,   _,   _,   _,   _,   1,   _,
   _,   _,   _,   _,   _,  16,  21,   4,   _,   8,   3,   _,  22,   _,   _,  11,   6,  15,   _,   _,  17,   _,   _,   5,   _,
  23,  11,   _,  17,  25,   _,   _,   9,   _,   _,   5,   _,  24,  20,  21,  22,   3,   _,  10,   _,   _,  15,   _,   _,   4,
   _,   _,   _,   7,  13,   _,   6,   _,  23,  14,   _,   _,   8,   5,  12,  15,   _,   _,   9,  16,   _,   _,   2,   _,  18,
   _,   8,  18,  14,   _,   _,  16,   _,  20,   4,   _,   7,  19,   _,  23,   _,   _,   _,   _,  24,   _,   _,  22,   _,   9,
   _,   _,   _,   _,   _,   7,   _,   _,   5,   _,   _,   9,  25,   2,  17,   _,   _,   6,   _,   _,  23,   _,  14,  24,   _,
  25,   _,   5,   _,   _,  22,   _,  24,   _,   _,   _,   _,  18,  14,   _,   _,   _,  19,   _,   _,   _,   _,   _,   _,  15,
   _,  12,  10,   2,   _,  21,   _,   _,   9,  18,  24,  15,   _,   1,   _,   3,  23,  14,   _,   5,   _,  11,   _,   _,   _
]);

n = 25;
